p cnf 10 48
 -5 3 -1 0
 8 9 -10 0
 -4 1 6 0
 3 8 9 0
 5 -10 9 0
 -7 1 -2 0
 6 9 -1 0
 -7 -6 8 0
 8 2 3 0
 1 8 -9 0
 7 -5 8 0
 -7 2 1 0
 2 -6 -3 0
 -4 -10 6 0
 -3 -6 10 0
 -3 -4 -10 0
 6 -3 -4 0
 6 -8 5 0
 5 -6 9 0
 -8 -10 -4 0
 -4 7 5 0
 7 -10 3 0
 -6 2 -5 0
 -7 9 2 0
 3 -10 -1 0
 -5 9 7 0
 6 4 -2 0
 -8 -10 -7 0
 3 7 10 0
 4 -1 8 0
 8 5 -2 0
 -9 -4 8 0
 5 10 -6 0
 -10 9 -8 0
 -10 4 2 0
 -3 -6 4 0
 9 -1 -3 0
 -3 6 9 0
 -9 5 -7 0
 -6 3 9 0
 -7 6 -8 0
 -2 -9 -7 0
 -6 -2 -4 0
 -3 -4 -9 0
 9 -3 5 0
 2 -5 -6 0
 2 -5 -8 0
 8 5 -3 0
c 1 a_1
c 2 a_2
c 3 a_3
c 4 a_4
c 5 a_5
c 6 a_6
c 7 a_7
c 8 a_8
c 9 a_9
c 10 a_10
